18102 15898 1647
17453 17547 1715
12290 20710 1799
16288 19712 1755
17015 16985 1775
14820 20180 1808
18363 14637 1591
15109 17891 1816
12633 20367 1810
16506 19494 1720
14206 19794 1816
15621 20379 1766
18106 15894 1611
15383 17617 1814
16639 19361 1665
12623 22377 1698
14281 21719 1727
14494 21506 1742
16125 19875 1773
13492 18508 1825
13091 20909 1789
18411 13589 1545
12149 22851 1565
12166 22834 1586
13702 20298 1809
15678 18322 1811
18438 13562 1472
16644 19356 1660
12212 22788 1622
17464 17536 1608
11069 22931 1589
14929 19071 1815
13385 22615 1658
16062 17938 1807
18324 14676 1626
13236 19764 1817
16287 18713 1794
13287 22713 1610
16165 18835 1797
18374 14626 1543
13310 21690 1753
17449 17551 1751
16664 19336 1624
17183 16817 1767
16184 17816 1804
